(declare-const x0 Real)
(assert (<= 0.0 x0))
(declare-const x1 Real)
(assert (<= 0.0 x1))
(declare-const x2 Real)
(assert (<= 0.0 x2))
(declare-const x3 Real)
(assert (<= 0.0 x3))
(declare-const x4 Real)
(assert (<= 0.0 x4))
(declare-const x5 Real)
(assert (<= 0.0 x5))

(assert (<= 2.450000 (+ (* 1.0 x0) (* 0.500000 x1) (* 0.333333 x2) (* 0.250000 x3) (* 0.200000 x4) (* 0.166667 x5))))
(assert (<= 1.592857 (+ (* 0.500000 x0) (* 0.333333 x1) (* 0.250000 x2) (* 0.200000 x3) (* 0.166667 x4) (* 0.142857 x5))))
(assert (<= 1.217857 (+ (* 0.333333 x0) (* 0.250000 x1) (* 0.200000 x2) (* 0.166667 x3) (* 0.142857 x4) (* 0.125000 x5))))
(assert (<= 0.995635 (+ (* 0.250000 x0) (* 0.200000 x1) (* 0.166667 x2) (* 0.142857 x3) (* 0.125000 x4) (* 0.111111 x5))))
(assert (<= 0.845635 (+ (* 0.200000 x0) (* 0.166667 x1) (* 0.142857 x2) (* 0.125000 x3) (* 0.111111 x4) (* 0.100000 x5))))
(assert (<= 0.736544 (+ (* 0.166667 x0) (* 0.142857 x1) (* 0.125000 x2) (* 0.111111 x3) (* 0.100000 x4) (* 0.090909 x5))))

(minimize
	(+ (* 2.450000 x0) (* 1.592857 x1) (* 1.217857 x2) (* 0.995635 x3) (* 0.845635 x4) (* 0.736544 x5))
)
(check-sat)
(get-objectives)
(exit)

